
Log started (V12.10.0.0) Fri Apr  2 11:16:17 2021

Warning, line 437: Name 's237' does not exist.
Warning, line 438: Name 's105' does not exist.
Warning, line 440: Name 's77' does not exist.
Warning, line 443: Name 's169' does not exist.
Warning, line 445: Name 's6' does not exist.
Warning, line 446: Name 's96' does not exist.
Warning, line 447: Name 's239' does not exist.
Warning, line 448: Name 's300' does not exist.

Problem 'asset.lp' read.
Read time = 0.01 sec. (0.03 ticks)
New value for default parallel thread count: 1
New value for time limit in seconds: 400
Version identifier: 12.10.0.0 | 2019-11-26 | 843d4de
CPXPARAM_Threads                                 1
CPXPARAM_TimeLimit                               400
Found incumbent of value 0.000000 after 0.00 sec. (0.01 ticks)
Tried aggregator 5 times.
MIP Presolve eliminated 226 rows and 184 columns.
MIP Presolve modified 306 coefficients.
Aggregator did 37 substitutions.
Reduced MIP has 31 rows, 54 columns, and 126 nonzeros.
Reduced MIP has 49 binaries, 4 generals, 0 SOSs, and 0 indicators.
Presolve time = 0.00 sec. (0.84 ticks)
Probing fixed 0 vars, tightened 2 bounds.
Probing time = 0.00 sec. (0.04 ticks)
Cover probing fixed 0 vars, tightened 1 bounds.
Tried aggregator 1 time.
MIP Presolve eliminated 12 rows and 7 columns.
MIP Presolve modified 8 coefficients.
Reduced MIP has 19 rows, 45 columns, and 84 nonzeros.
Reduced MIP has 45 binaries, 0 generals, 0 SOSs, and 0 indicators.
Presolve time = 0.00 sec. (0.10 ticks)
Probing time = 0.00 sec. (0.02 ticks)
Tried aggregator 1 time.
Detecting symmetries...
Reduced MIP has 19 rows, 45 columns, and 84 nonzeros.
Reduced MIP has 45 binaries, 0 generals, 0 SOSs, and 0 indicators.
Presolve time = 0.00 sec. (0.08 ticks)
Probing time = 0.00 sec. (0.02 ticks)
Clique table members: 41.
MIP emphasis: balance optimality and feasibility.
MIP search method: dynamic search.
Parallel mode: none, using 1 thread.
Root relaxation solution time = 0.00 sec. (0.05 ticks)

        Nodes                                         Cuts/
   Node  Left     Objective  IInf  Best Integer    Best Bound    ItCnt     Gap

*     0+    0                            0.0000       36.0000              --- 
*     0     0      integral     0       24.0000       24.0000       13    0.00%
Elapsed time = 0.01 sec. (1.29 ticks, tree = 0.00 MB, solutions = 1)

Root node processing (before b&c):
  Real time             =    0.01 sec. (1.30 ticks)
Sequential b&c:
  Real time             =    0.00 sec. (0.00 ticks)
                          ------------
Total (root+branch&cut) =    0.01 sec. (1.30 ticks)

Solution pool: 2 solutions saved.

MIP - Integer optimal solution:  Objective =  2.4000000000e+01
Solution time =    0.01 sec.  Iterations = 13  Nodes = 0
Deterministic time = 1.30 ticks  (130.27 ticks/sec)


Incumbent solution
Variable Name           Solution Value
F                            24.000000
y39                           1.000000
y76                           1.000000
y191                          1.000000
x23x39x2                      1.000000
x161x39x2                     1.000000
x119x76x2                     1.000000
x211x76x2                     1.000000
x270x191x3                    1.000000
x2x191x3                      1.000000
x39x0x2                       2.000000
x76x0x2                       2.000000
x191x0x3                      2.000000
s270                          7.880000
s210                          8.200000
s304                          9.340000
s191                          9.380000
z270z191z3                    1.000000
s23                           7.900000
s39                           9.085951
z23z39z2                      1.000000
s259                          9.121983
s25                           8.160000
s47                           8.180000
s76                           9.230000
s301                          9.230000
s202                          9.250000
s111                          9.310000
s184                          9.420000
s289                          9.470000
z23z289z2                     1.000000
s161                          7.900000
z161z39z2                     1.000000
z161z191z3                    1.000000
z161z289z2                    1.000000
s312                          7.910000
z312z191z3                    1.000000
s119                          8.039225
z119z76z2                     1.000000
z119z191z3                    1.000000
z119z289z2                    1.000000
s2                            8.001376
z2z191z3                      1.000000
s211                          8.087115
z211z76z2                     1.000000
z211z191z3                    1.000000
z211z289z2                    1.000000
s204                          6.909010
z204z191z3                    1.000000
s265                          8.090000
s255                          8.180000
s313                          8.200000
s152                          9.250000
s217                          8.210000
All other variables in the range 1-279 are 0.
